
Gurobi 10.0.1 (linux64) logging started Sun Nov 26 15:37:28 2023

Set parameter LogFile to value "ArtificialInstance/ExperimentV2/S3T5K1/AdSp/gurobi1.txt"
Gurobi Optimizer version 10.0.1 build v10.0.1rc0 (linux64)

CPU model: AMD EPYC 7H12 64-Core Processor, instruction set [SSE2|AVX|AVX2]
Thread count: 128 physical cores, 128 logical processors, using up to 32 threads

Academic license 656792 - for non-commercial use only - registered to b.___@student.vu.nl
Optimize a model with 4444 rows, 4164 columns and 15814 nonzeros
Model fingerprint: 0xf496d879
Variable types: 0 continuous, 4164 integer (4164 binary)
Coefficient statistics:
  Matrix range     [1e+00, 1e+00]
  Objective range  [1e+00, 2e+01]
  Bounds range     [1e+00, 1e+00]
  RHS range        [1e+00, 1e+00]
Presolve removed 478 rows and 446 columns
Presolve time: 0.06s
Presolved: 3966 rows, 3718 columns, 14454 nonzeros
Variable types: 0 continuous, 3718 integer (3718 binary)
Found heuristic solution: objective 430.8415278

Root relaxation: objective 5.600451e+01, 2956 iterations, 0.12 seconds (0.10 work units)

    Nodes    |    Current Node    |     Objective Bounds      |     Work
 Expl Unexpl |  Obj  Depth IntInf | Incumbent    BestBd   Gap | It/Node Time

     0     0   56.00451    0  347  430.84153   56.00451  87.0%     -    0s
H    0     0                     230.1879349   56.00451  75.7%     -    0s
H    0     0                     213.4338537   56.00451  73.8%     -    0s
H    0     0                      83.0399647   56.00451  32.6%     -    0s
*    0     0               0      56.5401707   56.54017  0.00%     -    0s

Cutting planes:
  Gomory: 3
  Zero half: 21

Explored 1 nodes (4114 simplex iterations) in 0.32 seconds (0.23 work units)
Thread count was 32 (of 128 available processors)

Solution count 5: 56.5402 83.04 213.434 ... 430.842

Optimal solution found (tolerance 1.00e-04)
Best objective 5.654017066866e+01, best bound 5.654017066866e+01, gap 0.0000%
